NAME : 10_3_3_1_(26).dat
COMMENT : Henke, Speranza, Wäscher, 2015
TYPE : MCVRP
DIMENSION : 11
EDGE_WEIGHT_TYPE : DISTANCE_MATRIX
CAPACITY : 1000
VEHICLES : 3
PRODUCT TYPES : 3
COMPARTMENTS : 3
NODE_COORD_SECTION
1 50 50
2 47 23.8
3 90.74 49.29
4 3.53 14.14
5 32.54 24.45
6 5.63 22.04
7 69.17 35.7
8 96.03 60.57
9 1.37 92.49
10 9.03 17.69
11 1.15 35.08
DEMAND_SECTION
1 0 0 0
2 151 0 0
3 0 110 0
4 0 3 0
5 288 0 0
6 318 0 0
7 82 0 0
8 0 9 0
9 0 0 335
10 0 200 0
11 0 180 0
DEPOT_SECTION
1
EOF